165
1000
447
180
611
120
509
53
256
389
57
108
53
491
659
143
180
103
828
423
85
338
381
277
8
378
294
349
338
279
676
886
472
622
466
596
776
186
172
71
610
992
390
416
242
35
647
38
105
827
1
504
610
420
538
138
42
540
440
108
744
647
157
528
300
270
247
545
45
772
114
29
545
823
16
806
8
560
224
20
556
167
722
404
176
453
447
576
99
324
540
525
228
152
211
345
25
460
173
647
262
102
242
134
496
35
94
120
143
489
84
604
438
15
662
310
353
46
101
347
411
862
15
353
290
275
613
332
316
162
368
639
307
59
434
99
445
30
194
395
74
388
965
941
413
390
958
738
984
721
164
687
114
176
185
440
427
566
115
368
435
56
443
219
753
313
758
